VER
1

OBJSENSE
MIN

VAR
2 1
F 2

INT
2
0
1

PSDVAR
1
2

PSDVARRANK1
1
1

CON
1 1
L+ 1

PSDCON
1
2

OBJFCOORD
2
0 0 0 1.000000
0 1 1 1.000000

OBJACOORD
2
0 1.000000
1 1.000000

FCOORD
1
0 0 1 0 1.000000

ACOORD
2
0 0 -1.000000
0 1 -1.000000

HCOORD
4
0 0 1 0 1.000000
0 0 1 1 3.000000
0 1 0 0 3.000000
0 1 1 0 1.000000

DCOORD
2
0 0 0 -1.000000
0 1 1 -1.000000
